NAME : AA45.1759816.tour
COMMENT : Cost = 0_1759816
COMMENT : Found by LKH [Keld Helsgaun] Sun Apr 23 15:14:35 2017
TYPE : TOUR
DIMENSION : 93
TOUR_SECTION
1
31
76
25
70
32
12
77
57
45
90
37
82
35
80
40
85
9
7
52
54
14
59
16
61
39
28
84
73
38
83
92
18
63
17
62
41
86
15
60
4
49
24
69
27
72
23
68
46
91
20
33
78
65
6
51
42
87
8
53
3
48
30
75
93
10
55
13
58
11
56
2
43
47
36
88
81
19
64
29
74
26
71
44
89
22
67
21
5
50
66
34
79
-1
EOF
